Solving original (integer) problem with strategy gdp.bigm...
--- Job model.gms Start 02/15/26 02:49:13 52.2.0 d8e408be LEX-LEG x86 64bit/Linux
--- Applying:
    /package/gams/52.2/gmsprmun.txt
--- GAMS Parameters defined
    Input /local/scratch/a/sgusev/repos/k_means/data/gams_gurobi_gdp.bigm/no_mode/2026-02-15_02-49-12/original/model.gms
    Output /local/scratch/a/sgusev/repos/k_means/data/gams_gurobi_gdp.bigm/no_mode/2026-02-15_02-49-12/original/output.lst
    ScrDir /local/scratch/a/sgusev/repos/k_means/data/gams_gurobi_gdp.bigm/no_mode/2026-02-15_02-49-12/original/225a/
    SysDir /package/gams/52.2/
    CurDir /local/scratch/a/sgusev/repos/k_means/data/gams_gurobi_gdp.bigm/no_mode/2026-02-15_02-49-12/original/
    LogOption 3
    AppendLog 1
Licensee: David Bernal / SECQUOIA Research Group         G251008+0003Ac-GEN
          Purdue University, Davidson School of Chemical EngineeringDCE4838
          225a/gamslice.dat
          5a82958a-fbca-4a23
          node:66820903 mem:995 cores:48 ipport:43855 v:2                  
          Evaluation license: Not for commercial or production use
          The time-limited license stops working on : Jun 30, 2027
System information: 48 physical cores and 995 Gb physical memory detected
GAMS 52.2.0   Copyright (C) 1987-2025 GAMS Development. All rights reserved
--- Starting compilation
--- model.gms(345) 2 Mb
--- $echo File /local/scratch/a/sgusev/repos/k_means/data/gams_gurobi_gdp.bigm/no_mode/2026-02-15_02-49-12/original/gurobi.opt
--- model.gms(598) 2 Mb
--- Starting execution: elapsed 0:00:00.007
--- model.gms(354) 3 Mb
--- Generating MINLP model GAMS_MODEL
--- model.gms(358) 5 Mb
---   89 rows  98 columns  432 non-zeroes
---   884 nl-code  204 nl-non-zeroes
---   68 discrete-columns
--- Range statistics (absolute non-zero finite values)
--- RHS       [min, max] : [ 1.000E+00, 1.042E+01] - Zero values observed as well
--- Bound     [min, max] : [ 1.000E+00, 1.020E+02] - Zero values observed as well
--- Matrix    [min, max] : [ 1.988E-02, 1.042E+01]
--- model.gms(358) 3 Mb
--- Executing GUROBI (Solvelink=5): elapsed 0:00:00.010
Reading parameter(s) from "/local/scratch/a/sgusev/repos/k_means/data/gams_gurobi_gdp.bigm/no_mode/2026-02-15_02-49-12/original/gurobi.opt"
>>  NonConvex 2
>>  Threads 1
>>  MIPGap 1e-06
>>  MIPGapAbs 1e-10
>>  FeasibilityTol 1e-06
>>  OptimalityTol 1e-06
>>  IntFeasTol 1e-05
Finished reading from "/local/scratch/a/sgusev/repos/k_means/data/gams_gurobi_gdp.bigm/no_mode/2026-02-15_02-49-12/original/gurobi.opt"

... GRB_LICENSE_FILE = /local/scratch/a/sgusev/gurobi.lic

    Gurobi           52.2.0 d8e408be Dec 8, 2025           LEG x86 64bit/Linux    

... GAMS/Gurobi Link license.
... GMO Q Extraction (ThreePass): 0.00s

    Gurobi Optimizer version 13.0.0 build v13.0.0rc1 (linux64 - "Oracle Linux Server 9.7")
    
    CPU model: AMD EPYC 7643 48-Core Processor, instruction set [SSE2|AVX|AVX2]
    Thread count: 48 physical cores, 96 logical processors, using up to 1 threads
    
    Non-default parameters:
    TimeLimit  300
    MIPGap  1e-06
    LogToConsole  0
    NonConvex  2
    Threads  1
    
    Optimize a model with 20 rows, 97 columns and 74 nonzeros (Min)
    Model fingerprint: 0x84be8154
    Model has 17 linear objective coefficients
    Model has 68 quadratic constraints
    Variable types: 29 continuous, 68 integer (0 binary)
    Coefficient statistics:
      Matrix range     [1e+00, 1e+00]
      QMatrix range    [1e+00, 1e+00]
      QLMatrix range   [2e-02, 1e+01]
      Objective range  [1e+00, 1e+00]
      Bounds range     [1e+00, 1e+02]
      RHS range        [1e+00, 1e+00]
      QRHS range       [5e+00, 8e+00]
    Presolve added 68 rows and 4 columns
    Presolve time: 0.00s
    Presolved: 88 rows, 101 columns, 482 nonzeros
    Presolved model has 4 quadratic constraint(s)
    Variable types: 33 continuous, 68 integer (68 binary)
    
    Root relaxation: objective 0.000000e+00, 36 iterations, 0.00 seconds (0.00 work units)
    
        Nodes    |    Current Node    |     Objective Bounds      |     Work
     Expl Unexpl |  Obj  Depth IntInf | Incumbent    BestBd   Gap | It/Node Time
    
    H    0     0                      11.1635943    0.00000   100%     -    0s
    *    0     0               0      11.1635943    0.00000   100%     -    0s
         0     0    0.00000    0   25   11.16359    0.00000   100%     -    0s
         0     0    0.00000    0   42   11.16359    0.00000   100%     -    0s
    H    0     0                       9.3049602    0.00000   100%     -    0s
         0     0    0.00000    0   37    9.30496    0.00000   100%     -    0s
         0     0    0.00000    0   35    9.30496    0.00000   100%     -    0s
    H    0     0                       9.0092934    0.00000   100%     -    0s
    *    0     0               0       9.0092934    0.00000   100%     -    0s
         0     0    0.00000    0   18    9.00929    0.00000   100%     -    0s
         0     0    0.00000    0   18    9.00929    0.00000   100%     -    0s
         0     0    0.00000    0   39    9.00929    0.00000   100%     -    0s
    H    0     0                       8.9367261    0.00000   100%     -    0s
    *    0     0               0       8.9367261    0.00000   100%     -    0s
         0     0    0.00000    0   25    8.93673    0.00000   100%     -    0s
         0     0    0.00000    0   22    8.93673    0.00000   100%     -    0s
         0     0    0.00000    0   31    8.93673    0.00000   100%     -    0s
         0     0    0.00000    0    4    8.93673    0.00000   100%     -    0s
         0     0    0.00000    0   12    8.93673    0.00000   100%     -    0s
         0     0    0.00000    0   23    8.93673    0.00000   100%     -    0s
         0     0    0.00000    0    2    8.93673    0.00000   100%     -    0s
    H    0     0                       6.5550607    0.00000   100%     -    0s
         0     0    0.00000    0   32    6.55506    0.00000   100%     -    0s
         0     0    0.00000    0   42    6.55506    0.00000   100%     -    0s
         0     0    0.00000    0    2    6.55506    0.00000   100%     -    0s
         0     0    0.00000    0   30    6.55506    0.00000   100%     -    0s
         0     0    0.00000    0    8    6.55506    0.00000   100%     -    0s
         0     0    0.00000    0   22    6.55506    0.00000   100%     -    0s
         0     0    0.00000    0   14    6.55506    0.00000   100%     -    0s
         0     0    0.00000    0   20    6.55506    0.00000   100%     -    0s
         0     0    0.00000    0    8    6.55506    0.00000   100%     -    0s
         0     0    0.00000    0   22    6.55506    0.00000   100%     -    0s
         0     0    0.00000    0    2    6.55506    0.00000   100%     -    0s
         0     0    0.00000    0   20    6.55506    0.00000   100%     -    0s
         0     0    0.00000    0   20    6.55506    0.00000   100%     -    0s
         0     0    0.00000    0   29    6.55506    0.00000   100%     -    0s
         0     0    0.00000    0   10    6.55506    0.00000   100%     -    0s
         0     0    0.00000    0   20    6.55506    0.00000   100%     -    0s
         0     0    0.00000    0   12    6.55506    0.00000   100%     -    0s
         0     0    0.00000    0   30    6.55506    0.00000   100%     -    0s
         0     0    0.00000    0    4    6.55506    0.00000   100%     -    0s
         0     0    0.00000    0   24    6.55506    0.00000   100%     -    0s
         0     0    0.00000    0    6    6.55506    0.00000   100%     -    0s
         0     0    0.00000    0   22    6.55506    0.00000   100%     -    0s
         0     0    0.00000    0   16    6.55506    0.00000   100%     -    0s
         0     0    0.00000    0   28    6.55506    0.00000   100%     -    0s
         0     0    0.00000    0   14    6.55506    0.00000   100%     -    0s
         0     0    0.00000    0   25    6.55506    0.00000   100%     -    0s
         0     0    0.00000    0    6    6.55506    0.00000   100%     -    0s
         0     0    0.00000    0   26    6.55506    0.00000   100%     -    0s
         0     0    0.00000    0   12    6.55506    0.00000   100%     -    0s
         0     0    0.00000    0   26    6.55506    0.00000   100%     -    0s
         0     0    0.00000    0    6    6.55506    0.00000   100%     -    0s
         0     0    0.00000    0   22    6.55506    0.00000   100%     -    0s
         0     0    0.00000    0   22    6.55506    0.00000   100%     -    0s
         0     0    0.00000    0   28    6.55506    0.00000   100%     -    0s
         0     0    0.00000    0   16    6.55506    0.00000   100%     -    0s
         0     0    0.00000    0   26    6.55506    0.00000   100%     -    0s
         0     0    0.00000    0    6    6.55506    0.00000   100%     -    0s
         0     0    0.00000    0   38    6.55506    0.00000   100%     -    0s
         0     0    0.00000    0   12    6.55506    0.00000   100%     -    0s
         0     0    0.00000    0   30    6.55506    0.00000   100%     -    0s
         0     0    0.00000    0   14    6.55506    0.00000   100%     -    0s
         0     0    0.00000    0   32    6.55506    0.00000   100%     -    0s
         0     0    0.00000    0    2    6.55506    0.00000   100%     -    0s
         0     0    0.00000    0   32    6.55506    0.00000   100%     -    0s
         0     0    0.00000    0   14    6.55506    0.00000   100%     -    0s
         0     0    0.00000    0   18    6.55506    0.00000   100%     -    0s
         0     0    0.00000    0    4    6.55506    0.00000   100%     -    0s
         0     0    0.00000    0   22    6.55506    0.00000   100%     -    0s
         0     0    0.00000    0   12    6.55506    0.00000   100%     -    0s
         0     0    0.00000    0   26    6.55506    0.00000   100%     -    0s
         0     0    0.00000    0    6    6.55506    0.00000   100%     -    0s
         0     0    0.00000    0   24    6.55506    0.00000   100%     -    0s
         0     0    0.00000    0   18    6.55506    0.00000   100%     -    0s
         0     0    0.00000    0   22    6.55506    0.00000   100%     -    0s
         0     0    0.00000    0    8    6.55506    0.00000   100%     -    0s
         0     0    0.00000    0   22    6.55506    0.00000   100%     -    0s
         0     0    0.00000    0   18    6.55506    0.00000   100%     -    0s
         0     0    0.00000    0   22    6.55506    0.00000   100%     -    0s
         0     0    0.00000    0   12    6.55506    0.00000   100%     -    0s
         0     0    0.00000    0   24    6.55506    0.00000   100%     -    0s
         0     0    0.00000    0    2    6.55506    0.00000   100%     -    0s
         0     0    0.00000    0   34    6.55506    0.00000   100%     -    0s
         0     0    0.00000    0   10    6.55506    0.00000   100%     -    0s
         0     0    0.00000    0   24    6.55506    0.00000   100%     -    0s
         0     0    0.00000    0    2    6.55506    0.00000   100%     -    0s
         0     0    0.00000    0   23    6.55506    0.00000   100%     -    0s
         0     0    0.00000    0   14    6.55506    0.00000   100%     -    0s
         0     0    0.00000    0   25    6.55506    0.00000   100%     -    0s
         0     0    0.00000    0   14    6.55506    0.00000   100%     -    0s
         0     0    0.00000    0   22    6.55506    0.00000   100%     -    0s
         0     0    0.00000    0    7    6.55506    0.00000   100%     -    0s
         0     0    0.00000    0   29    6.55506    0.00000   100%     -    0s
         0     0    0.00000    0   16    6.55506    0.00000   100%     -    0s
         0     0    0.00000    0   33    6.55506    0.00000   100%     -    0s
         0     0    0.00000    0    4    6.55506    0.00000   100%     -    0s
         0     0    0.00000    0   31    6.55506    0.00000   100%     -    0s
         0     0    0.00000    0    6    6.55506    0.00000   100%     -    0s
         0     0    0.00000    0   22    6.55506    0.00000   100%     -    0s
         0     0    0.00000    0   10    6.55506    0.00000   100%     -    0s
         0     0    0.00000    0   28    6.55506    0.00000   100%     -    0s
         0     0    0.00000    0   12    6.55506    0.00000   100%     -    0s
         0     0    0.00000    0   21    6.55506    0.00000   100%     -    0s
         0     0    0.00000    0    8    6.55506    0.00000   100%     -    0s
         0     0    0.00000    0   37    6.55506    0.00000   100%     -    0s
         0     0    0.00000    0   10    6.55506    0.00000   100%     -    0s
         0     0    0.00000    0   25    6.55506    0.00000   100%     -    0s
         0     0    0.00000    0   14    6.55506    0.00000   100%     -    0s
         0     0    0.00000    0   26    6.55506    0.00000   100%     -    0s
         0     0    0.00000    0    4    6.55506    0.00000   100%     -    0s
         0     0    0.00000    0   23    6.55506    0.00000   100%     -    0s
         0     0    0.00000    0   18    6.55506    0.00000   100%     -    0s
         0     0    0.00000    0   26    6.55506    0.00000   100%     -    0s
         0     0    0.00000    0   12    6.55506    0.00000   100%     -    0s
         0     0    0.00000    0   28    6.55506    0.00000   100%     -    0s
         0     0    0.00000    0   14    6.55506    0.00000   100%     -    0s
         0     0    0.00000    0   22    6.55506    0.00000   100%     -    0s
         0     0    0.00000    0   16    6.55506    0.00000   100%     -    0s
         0     0    0.00000    0   20    6.55506    0.00000   100%     -    0s
         0     0    0.00000    0   20    6.55506    0.00000   100%     -    0s
         0     0    0.00000    0   28    6.55506    0.00000   100%     -    0s
         0     0    0.00000    0    4    6.55506    0.00000   100%     -    0s
         0     0    0.00000    0   18    6.55506    0.00000   100%     -    0s
         0     0    0.00000    0   14    6.55506    0.00000   100%     -    0s
         0     0    0.00000    0   22    6.55506    0.00000   100%     -    0s
         0     0    0.00000    0   12    6.55506    0.00000   100%     -    0s
         0     0    0.00000    0   22    6.55506    0.00000   100%     -    0s
         0     0    0.00000    0   20    6.55506    0.00000   100%     -    0s
         0     0    0.00000    0   22    6.55506    0.00000   100%     -    0s
         0     0    0.00000    0   22    6.55506    0.00000   100%     -    0s
         0     0    0.00000    0   26    6.55506    0.00000   100%     -    0s
         0     0    0.00000    0    4    6.55506    0.00000   100%     -    0s
         0     0    0.00000    0   28    6.55506    0.00000   100%     -    0s
         0     0    0.00000    0   14    6.55506    0.00000   100%     -    0s
         0     0    0.00000    0   22    6.55506    0.00000   100%     -    0s
         0     0    0.00000    0    4    6.55506    0.00000   100%     -    0s
         0     0    0.00000    0   29    6.55506    0.00000   100%     -    0s
         0     0    0.00000    0   20    6.55506    0.00000   100%     -    0s
         0     0    0.00000    0   24    6.55506    0.00000   100%     -    0s
         0     0    0.00000    0   14    6.55506    0.00000   100%     -    0s
         0     0    0.00000    0   24    6.55506    0.00000   100%     -    0s
         0     0    0.00000    0    6    6.55506    0.00000   100%     -    0s
         0     0    0.00000    0   20    6.55506    0.00000   100%     -    0s
         0     0    0.00000    0   18    6.55506    0.00000   100%     -    0s
         0     0    0.00000    0   28    6.55506    0.00000   100%     -    0s
         0     0    0.00000    0    6    6.55506    0.00000   100%     -    0s
         0     0    0.00000    0   22    6.55506    0.00000   100%     -    0s
         0     0    0.00000    0    4    6.55506    0.00000   100%     -    0s
         0     0    0.00000    0   20    6.55506    0.00000   100%     -    0s
         0     0    0.00000    0   18    6.55506    0.00000   100%     -    0s
         0     0    0.00000    0   23    6.55506    0.00000   100%     -    0s
         0     0    0.00000    0   10    6.55506    0.00000   100%     -    0s
         0     0    0.00000    0   22    6.55506    0.00000   100%     -    0s
         0     0    0.00000    0    4    6.55506    0.00000   100%     -    0s
         0     0    0.00000    0   22    6.55506    0.00000   100%     -    0s
         0     0    0.00000    0   10    6.55506    0.00000   100%     -    0s
         0     0    0.00000    0   33    6.55506    0.00000   100%     -    0s
         0     0    0.00000    0    8    6.55506    0.00000   100%     -    0s
         0     0    0.00000    0   22    6.55506    0.00000   100%     -    0s
         0     0    0.00000    0    6    6.55506    0.00000   100%     -    0s
         0     0    0.00000    0   20    6.55506    0.00000   100%     -    0s
         0     0    0.00000    0   12    6.55506    0.00000   100%     -    0s
         0     0    0.00000    0   18    6.55506    0.00000   100%     -    0s
         0     0    0.00000    0    2    6.55506    0.00000   100%     -    0s
         0     0    0.00000    0   22    6.55506    0.00000   100%     -    0s
         0     0    0.00000    0   12    6.55506    0.00000   100%     -    0s
         0     0    0.00000    0   16    6.55506    0.00000   100%     -    0s
         0     0    0.00000    0    2    6.55506    0.00000   100%     -    0s
         0     0    0.00000    0   24    6.55506    0.00000   100%     -    0s
         0     0    0.00000    0   16    6.55506    0.00000   100%     -    0s
         0     0    0.00000    0   26    6.55506    0.00000   100%     -    0s
         0     0    0.00000    0    6    6.55506    0.00000   100%     -    0s
         0     0    0.00000    0   22    6.55506    0.00000   100%     -    0s
         0     0    0.00000    0   10    6.55506    0.00000   100%     -    0s
         0     0    0.00000    0   24    6.55506    0.00000   100%     -    0s
         0     0    0.00000    0   12    6.55506    0.00000   100%     -    0s
         0     0    0.00000    0   20    6.55506    0.00000   100%     -    0s
         0     0    0.00000    0   20    6.55506    0.00000   100%     -    0s
         0     0    0.00000    0   34    6.55506    0.00000   100%     -    0s
         0     0    0.00000    0   16    6.55506    0.00000   100%     -    0s
         0     0    0.00000    0   26    6.55506    0.00000   100%     -    0s
         0     0    0.00000    0    6    6.55506    0.00000   100%     -    0s
         0     0    0.00000    0   33    6.55506    0.00000   100%     -    0s
         0     0    0.00000    0    2    6.55506    0.00000   100%     -    0s
         0     0    0.00000    0   28    6.55506    0.00000   100%     -    0s
         0     0    0.00000    0   16    6.55506    0.00000   100%     -    0s
         0     0    0.00000    0   26    6.55506    0.00000   100%     -    0s
         0     0    0.00000    0    2    6.55506    0.00000   100%     -    0s
         0     0    0.00000    0   29    6.55506    0.00000   100%     -    0s
         0     0    0.00000    0   12    6.55506    0.00000   100%     -    0s
         0     0    0.00000    0   22    6.55506    0.00000   100%     -    0s
         0     0    0.00000    0    8    6.55506    0.00000   100%     -    0s
         0     0    0.00000    0   34    6.55506    0.00000   100%     -    0s
         0     0    0.00000    0   16    6.55506    0.00000   100%     -    0s
         0     0    0.00000    0   24    6.55506    0.00000   100%     -    0s
         0     0    0.00000    0    4    6.55506    0.00000   100%     -    0s
         0     0    0.00000    0   31    6.55506    0.00000   100%     -    0s
         0     0    0.00000    0    8    6.55506    0.00000   100%     -    0s
         0     0    0.00000    0   26    6.55506    0.00000   100%     -    0s
         0     0    0.00000    0   12    6.55506    0.00000   100%     -    0s
         0     0    0.00000    0   22    6.55506    0.00000   100%     -    0s
         0     0    0.00000    0    4    6.55506    0.00000   100%     -    0s
         0     0    0.00000    0   29    6.55506    0.00000   100%     -    0s
         0     0    0.00000    0   16    6.55506    0.00000   100%     -    0s
         0     0    0.00000    0   20    6.55506    0.00000   100%     -    0s
         0     0    0.00000    0   10    6.55506    0.00000   100%     -    0s
         0     0    0.00000    0   32    6.55506    0.00000   100%     -    0s
         0     0    0.00000    0   10    6.55506    0.00000   100%     -    0s
         0     0    0.00000    0   29    6.55506    0.00000   100%     -    0s
         0     0    0.00000    0    2    6.55506    0.00000   100%     -    0s
         0     0    0.00000    0   32    6.55506    0.00000   100%     -    0s
         0     0    0.00000    0   16    6.55506    0.00000   100%     -    0s
         0     2    0.00000    0   12    6.55506    0.00000   100%     -    0s
    H  106    84                       6.5550606    0.00000   100%   8.0    0s
    H  210   159                       6.5550606    0.00000   100%   6.5    0s
    H  262   194                       6.5550606    0.00000   100%   6.7    0s
    H  326   215                       6.5550605    0.00000   100%   6.5    0s
    H  432   270                       6.5550605    0.00000   100%  54.0    1s
    H  433   256                       6.5550605    0.00000   100%  53.9    1s
     24350 10797    5.06610   30   20    6.55506    1.65505  74.8%   7.0    5s
     57782 21734     cutoff   30         6.55506    2.54815  61.1%   6.6   10s
    H79928 27940                       6.5550603    2.93887  55.2%   6.5   13s
    H79928 27940                       6.5550603    2.93887  55.2%   6.5   13s
    H79928 27940                       6.5550603    2.93887  55.2%   6.5   13s
    H79928 27940                       6.5550603    2.93887  55.2%   6.5   13s
    H79928 27940                       6.5550603    2.93887  55.2%   6.5   13s
    H79928 27940                       6.5550603    2.93887  55.2%   6.5   13s
    H79930 27940                       6.5550603    2.93887  55.2%   6.5   13s
    H80035 27984                       6.5550603    2.94019  55.1%   6.5   13s
    H80192 28018                       6.5550603    2.94463  55.1%   6.5   13s
     87719 30013     cutoff   33         6.55506    3.05063  53.5%   6.5   15s
     118144 37230    5.11135   29   23    6.55506    3.37985  48.4%   6.4   20s
    H143740 41985                       6.4714527    3.60147  44.3%   6.4   24s
    H143740 41985                       6.4714526    3.60147  44.3%   6.4   24s
    H143740 41985                       6.4714519    3.60147  44.3%   6.4   24s
    H143880 42018                       6.4714519    3.60267  44.3%   6.4   24s
    H145258 42320                       6.4714519    3.61458  44.1%   6.4   24s
     146498 42544     cutoff   45         6.47145    3.62535  44.0%   6.4   25s
    H170578 46918                       6.4714519    3.82105  41.0%   6.3   28s
     177270 48193    6.10401   32   18    6.47145    3.86748  40.2%   6.3   30s
     207799 52973     cutoff   34         6.47145    4.06071  37.3%   6.2   35s
    H221934 54939                       6.4714518    4.13609  36.1%   6.2   37s
    H232928 55984                       6.4434333    4.19478  34.9%   6.2   39s
    H232929 55983                       6.4434333    4.19478  34.9%   6.2   39s
    H232981 55980                       6.4434333    4.19527  34.9%   6.2   39s
    H233033 55984                       6.4434333    4.19554  34.9%   6.2   39s
    H233089 55979                       6.4434333    4.19589  34.9%   6.2   39s
    H233146 55992                       6.4434333    4.19617  34.9%   6.2   39s
    H233198 56000                       6.4434333    4.19642  34.9%   6.2   39s
    H233251 55998                       6.4434333    4.19687  34.9%   6.2   39s
     235465 56210    4.71316   41   12    6.44343    4.21314  34.6%   6.2   40s
     264441 59224     cutoff   44         6.44343    4.36933  32.2%   6.2   45s
    H287674 61158                       6.4434333    4.49014  30.3%   6.2   49s
    H288623 61098                       6.4372173    4.49423  30.2%   6.2   49s
    H288623 61098                       6.4372173    4.49423  30.2%   6.2   49s
    H288946 61108                       6.4372173    4.49635  30.2%   6.2   49s
    H288998 61113                       6.4372173    4.49646  30.1%   6.2   49s
     290923 61259    5.43698   37   16    6.43722    4.50516  30.0%   6.2   50s
    H293235 61451                       6.4372173    4.51463  29.9%   6.2   50s
     319188 63337    6.09817   35   12    6.43722    4.62706  28.1%   6.1   55s
     347617 64741     cutoff   39         6.43722    4.74253  26.3%   6.1   60s
     374988 65435    6.21500   36   16    6.43722    4.84892  24.7%   6.1   65s
     402212 65605    6.06796   38   12    6.43722    4.94803  23.1%   6.1   70s
    H414327 65547                       6.4372173    4.99208  22.4%   6.1   72s
    H414327 65547                       6.4372173    4.99208  22.4%   6.1   72s
    H414327 65547                       6.4372173    4.99208  22.4%   6.1   72s
    H414327 65547                       6.4372172    4.99208  22.4%   6.1   72s
    H414327 65547                       6.4372172    4.99208  22.4%   6.1   72s
    H419333 65212                       6.4292772    5.01165  22.0%   6.1   73s
    H419429 65205                       6.4292772    5.01226  22.0%   6.1   73s
    H419481 65204                       6.4292771    5.01247  22.0%   6.1   73s
    H419533 65212                       6.4292771    5.01250  22.0%   6.1   73s
    H419585 65210                       6.4292770    5.01281  22.0%   6.1   73s
    H419637 65206                       6.4292770    5.01307  22.0%   6.1   73s
    H419689 65201                       6.4292770    5.01317  22.0%   6.1   73s
    H419742 65204                       6.4292770    5.01331  22.0%   6.1   73s
    H419902 65202                       6.4292770    5.01383  22.0%   6.1   73s
    H420170 65185                       6.4292770    5.01518  22.0%   6.1   73s
     426593 65006    5.53028   41   14    6.42928    5.03901  21.6%   6.1   75s
     452714 63910    5.57076   38   12    6.42928    5.12952  20.2%   6.1   80s
     478323 62140     cutoff   42         6.42928    5.21877  18.8%   6.1   85s
     503676 59727    5.31160   41   10    6.42928    5.30813  17.4%   6.1   90s
    H511702 58923                       6.4292760    5.33331  17.0%   6.1   91s
    H511702 58923                       6.4292760    5.33331  17.0%   6.1   91s
    H511702 58923                       6.4292760    5.33331  17.0%   6.1   91s
     526094 57142     cutoff   39         6.42928    5.38315  16.3%   6.1   95s
     550260 53711    5.79107   40   12    6.42928    5.46955  14.9%   6.1  100s
     573531 49358     cutoff   40         6.42928    5.55393  13.6%   6.1  105s
     596337 44128    6.17533   40   10    6.42928    5.64424  12.2%   6.1  110s
    H611405 40167                       6.4292760    5.70761  11.2%   6.1  113s
     617445 38393     cutoff   33         6.42928    5.73447  10.8%   6.1  115s
     638514 31961     cutoff   36         6.42928    5.83376  9.26%   6.1  120s
    H652577 26632                       6.4292760    5.91329  8.03%   6.1  123s
     657129 24698    6.41553   39   10    6.42928    5.94320  7.56%   6.1  125s
     676454 15392     cutoff   39         6.42928    6.08945  5.29%   6.1  130s
     694477  4009     cutoff   34         6.42928    6.31922  1.71%   6.1  135s
    
    Cutting planes:
      Flow cover: 4
    
    Explored 699296 nodes (4303446 simplex iterations) in 136.23 seconds (139.70 work units)
    Thread count was 1 (of 96 available processors)
    
    Solution count 10: 6.42928 6.42928 6.43722 ... 11.1636
    
    Optimal solution found (tolerance 1.00e-06)
    Best objective 6.429275989606e+00, best bound 6.429275989606e+00, gap 0.0000%
    
    User-callback calls 699461, time in user-callback 0.03 sec

... Solving fixed model...

    Gurobi Optimizer version 13.0.0 build v13.0.0rc1 (linux64 - "Oracle Linux Server 9.7")
    
    CPU model: AMD EPYC 7643 48-Core Processor, instruction set [SSE2|AVX|AVX2]
    Thread count: 48 physical cores, 96 logical processors, using up to 1 threads
    
    Non-default parameters:
    TimeLimit  300
    MIPGap  1e-06
    LogToConsole  0
    NonConvex  2
    Threads  1
    
    Optimize a model with 20 rows, 97 columns and 74 nonzeros (Min)
    Model fingerprint: 0xbba08620
    Model has 17 linear objective coefficients
    Model has 68 quadratic constraints
    Coefficient statistics:
      Matrix range     [1e+00, 1e+00]
      QMatrix range    [1e+00, 1e+00]
      QLMatrix range   [2e-02, 1e+01]
      Objective range  [1e+00, 1e+00]
      Bounds range     [1e+00, 1e+02]
      RHS range        [1e+00, 1e+00]
      QRHS range       [5e+00, 8e+00]
    Presolve removed 17 rows and 68 columns
    Presolve time: 0.00s
    Presolved: 85 rows, 102 columns, 212 nonzeros
    Presolved model has 17 second-order cone constraints
    Ordering time: 0.00s
    
    Barrier statistics:
     AA' NZ     : 7.490e+02
     Factor NZ  : 1.075e+03
     Factor Ops : 1.786e+04 (less than 1 second per iteration)
     Threads    : 1
    
                      Objective                Residual
    Iter       Primal          Dual         Primal    Dual     Compl     Time
       0   8.97085794e+02 -6.00027748e+02  1.12e+01 4.48e+00  1.50e+01     0s
       1   8.18716292e+01 -9.86343212e+01  5.23e-02 4.92e-06  1.27e+00     0s
       2   8.92478649e+00 -1.36060485e+01  9.01e-04 7.55e-07  1.58e-01     0s
       3   7.73484624e+00  4.85126539e-01  2.64e-06 2.01e-07  5.11e-02     0s
       4   6.69889683e+00  5.70509324e+00  2.90e-12 2.23e-08  7.00e-03     0s
       5   6.43910282e+00  6.38238467e+00  1.21e-13 1.38e-09  3.99e-04     0s
       6   6.42945522e+00  6.42658896e+00  3.75e-13 8.09e-11  2.02e-05     0s
       7   6.42929198e+00  6.42903111e+00  9.27e-12 7.24e-12  1.84e-06     0s
       8   6.42927911e+00  6.42916686e+00  5.24e-10 3.09e-12  7.91e-07     0s
       9   6.42927738e+00  6.42924755e+00  1.19e-09 6.75e-12  2.10e-07     0s
      10   6.42927652e+00  6.42926638e+00  1.74e-09 4.36e-12  7.14e-08     0s
      11   6.42927619e+00  6.42927031e+00  4.60e-09 2.74e-11  4.14e-08     0s
    
    Barrier solved model in 11 iterations and 0.00 seconds (0.00 work units)
    Optimal objective 6.42927619e+00
    
    
    User-callback calls 0, time in user-callback 0.00 sec
    Warning: to get QCP duals, please set parameter QCPDual to 1

--- Reading solution for model GAMS_MODEL
***
*** Solver did not provide marginals for model GAMS_MODEL
***
--- Executing after solve: elapsed 0:02:16.279
--- model.gms(361) 3 Mb
--- model.gms(598) 5 Mb
--- Putfile results /local/scratch/a/sgusev/repos/k_means/data/gams_gurobi_gdp.bigm/no_mode/2026-02-15_02-49-12/original/results.dat
--- Putfile statresults /local/scratch/a/sgusev/repos/k_means/data/gams_gurobi_gdp.bigm/no_mode/2026-02-15_02-49-12/original/resultsstat.dat
*** Status: Normal completion
--- Job model.gms Stop 02/15/26 02:51:29 elapsed 0:02:16.280
Original problem solved. Time taken: 136.81847310066223 seconds
Original objective value: 6.429276189234783
